p cnf 150 180
-17 47 -116 0
9 21 -150 0
-63 -32 74 0
-43 147 -60 0
30 -37 -11 0
132 -63 65 0
82 -110 84 0
65 97 -106 0
99 -84 -38 0
6 -121 136 0
-53 37 -113 0
-23 -118 -59 0
66 114 29 0
109 -70 114 0
-61 63 129 0
-10 116 141 0
-57 134 -117 0
-97 -54 140 0
44 -94 -121 0
14 125 79 0
-38 -25 144 0
-92 -51 -37 0
18 38 -10 0
-91 130 -50 0
-27 53 118 0
-91 14 -20 0
58 -11 -15 0
-150 13 -4 0
11 -39 -102 0
66 -117 -85 0
33 -149 125 0
-21 -38 -26 0
137 121 80 0
-43 -127 13 0
-54 41 -10 0
-87 146 -42 0
-118 -67 116 0
72 -26 73 0
145 -92 63 0
-126 -125 -111 0
125 -124 104 0
-4 91 -37 0
-32 134 -34 0
-127 -120 -90 0
-78 -59 -116 0
56 -60 -41 0
-100 -38 -102 0
98 87 15 0
125 11 36 0
-22 -60 52 0
-26 53 -25 0
46 -121 126 0
125 -18 -28 0
10 -111 66 0
-139 -123 -118 0
45 94 19 0
38 -149 -35 0
-105 17 -68 0
-76 15 40 0
-12 42 65 0
82 -145 -140 0
-86 -57 78 0
57 -35 26 0
48 -59 76 0
23 -26 110 0
60 -22 -149 0
-122 -41 15 0
25 -38 -131 0
-30 132 -6 0
-103 128 36 0
-75 86 -81 0
-20 34 84 0
15 58 45 0
29 80 117 0
67 88 93 0
33 -24 81 0
-19 -102 84 0
-73 -67 99 0
-101 -139 49 0
-57 30 -22 0
29 -125 95 0
126 -45 145 0
12 132 -79 0
91 -133 -112 0
87 10 126 0
-66 42 100 0
107 45 -109 0
18 -142 133 0
-113 -15 -64 0
-49 128 -135 0
30 -64 57 0
36 -16 11 0
-148 98 -86 0
-8 108 -15 0
-10 148 -61 0
-13 -4 35 0
86 82 95 0
-124 30 70 0
36 16 -75 0
48 -7 69 0
-48 -96 -24 0
-52 -100 103 0
-51 138 88 0
-119 -49 32 0
-95 -140 -84 0
-32 72 -121 0
48 -85 143 0
-63 -39 -113 0
-115 -139 -4 0
98 36 -110 0
-87 -146 122 0
-94 42 21 0
141 -103 -124 0
63 147 -141 0
-11 -121 -92 0
-62 -37 127 0
73 -5 -86 0
77 -88 -72 0
50 -19 122 0
105 -6 21 0
34 53 -47 0
-41 9 119 0
7 88 -1 0
86 143 -116 0
119 85 46 0
-74 114 -111 0
-111 113 -84 0
45 -31 -121 0
-31 101 -145 0
13 -18 -2 0
-56 -89 82 0
89 120 141 0
130 -68 -135 0
-112 137 48 0
39 -83 47 0
-26 -48 5 0
-111 -65 139 0
148 57 -2 0
83 -53 -146 0
17 -47 123 0
101 -76 -122 0
-82 49 87 0
63 -7 59 0
-42 124 -91 0
-122 -44 -28 0
-73 123 132 0
24 -113 -92 0
-4 -12 41 0
108 -54 -110 0
-44 -71 -142 0
x -1 2 -3 4 6 7 -9 12 13 14 -15 18 20 -22 -23 24 30 34 -37 39 -40 -43 45 -48 52 -55 59 -60 61 -62 -63 65 66 -67 -68 71 72 -74 -78 -79 83 89 91 92 -96 -97 98 102 103 104 -105 106 -109 112 -113 115 -116 122 123 -124 -127 129 130 131 -132 133 136 137 -138 140 146 -150 0
x 5 6 9 10 12 13 15 17 18 19 23 24 25 -28 29 -30 33 35 37 -38 -39 43 45 46 -47 -48 50 54 -55 -58 -59 -61 -62 63 -66 -67 -68 69 70 72 76 77 79 -80 81 -83 86 91 -92 95 97 -99 -100 -102 103 -106 -107 -111 -112 115 -116 -117 118 -123 -124 -126 -128 -129 -130 -131 -133 -136 141 144 146 -148 149 150 0
x -2 3 -4 -5 7 9 11 13 18 -19 22 23 -24 -25 -28 -33 34 -36 37 41 -45 -47 48 -51 55 56 57 -59 -62 63 -64 -68 71 -72 73 -75 76 -77 79 -80 -83 84 85 -86 -87 91 93 -96 97 -98 -103 104 108 115 -116 -117 119 121 122 -123 -124 126 -128 130 -131 133 -134 -136 137 142 143 144 -146 -147 148 -150 0
x 1 -3 -5 7 -10 12 -14 15 18 -24 -26 -28 -31 -33 -37 38 -39 41 -42 49 -50 -51 53 -54 -55 -56 58 -59 60 62 -63 -64 65 66 68 69 -71 73 75 77 79 -80 83 84 86 -87 88 89 90 -91 -92 -93 94 95 96 -97 -101 -102 103 -104 105 106 -109 110 111 112 -113 -115 -118 123 -128 131 132 134 -137 139 141 -142 143 147 148 150 0
x -3 4 -5 -7 -9 10 -12 15 -16 -17 18 19 -26 27 -31 -32 36 38 -41 -43 -46 49 50 -51 57 60 -61 63 66 67 -68 69 71 73 75 78 79 -83 86 -88 89 -90 91 94 97 98 101 -106 108 109 110 -111 -113 115 116 -119 -121 -123 124 128 130 133 134 -135 -136 -139 -140 -141 142 -143 -144 145 148 -150 0
x 1 2 -11 -13 -15 -16 -21 -24 25 28 29 -30 -33 -35 36 -38 -40 42 -44 -46 -47 49 -51 -53 54 55 -57 59 63 -65 66 68 70 -72 74 76 77 79 80 -82 86 92 -94 100 106 108 -111 -112 -114 115 117 -119 122 -123 124 -125 -128 129 -131 133 -135 -137 139 140 -145 -146 147 -149 150 0
x 2 3 4 -7 -8 9 -11 -14 15 -16 -19 -20 21 22 -23 24 -25 -26 -27 28 -30 -32 34 -36 -39 -41 -42 43 44 45 -48 -53 -54 56 -59 60 62 63 64 -67 70 -74 75 -76 78 83 -85 -86 -87 88 91 92 -93 95 -96 97 100 103 -105 -107 109 -110 111 -113 -114 115 116 117 -119 120 125 -126 -127 -128 132 134 135 137 -138 -142 143 144 145 -146 -147 149 150 0
x 2 5 -7 -9 10 -14 -15 18 -19 -20 26 -28 -30 31 32 33 34 -35 37 38 43 -44 -46 -47 -50 52 -55 -57 -59 -60 -61 62 -66 -67 68 71 74 -77 79 82 84 -85 -86 88 -91 92 -96 -97 100 -111 -113 115 -117 -118 119 -121 122 123 125 128 -129 -133 134 -137 -138 -141 142 147 -148 -150 0
x -3 4 -6 8 -9 14 15 17 -18 -21 22 -26 -28 29 30 -31 32 -33 34 -35 -36 -38 40 41 -44 48 -49 52 -55 56 57 58 -59 60 -61 -63 -64 67 68 69 -71 -74 -76 -78 84 86 -89 -91 92 -97 98 100 -105 -106 108 109 -110 111 -116 -117 118 119 122 126 -128 130 -132 133 -136 137 -139 -140 -141 -145 -146 -147 150 0
x 3 -4 -6 -10 12 15 -20 -22 -25 -26 27 -29 31 32 33 34 -35 36 41 -44 -46 47 49 52 -53 -55 -65 66 69 -72 -74 -75 76 78 -80 81 84 85 -86 87 -89 -90 92 95 -98 99 101 102 -103 104 -105 -106 107 -113 -115 117 120 -124 128 -132 -136 137 138 -139 140 142 -143 144 147 -148 150 0
x -1 -2 -3 4 7 -8 10 11 15 19 -21 -22 -23 -24 -28 30 31 32 33 34 36 -38 39 40 41 43 -45 46 -49 -50 -51 52 -53 -59 -61 64 -66 68 69 -70 71 75 -77 -79 -82 85 86 -87 -88 89 -90 99 103 -104 -105 112 -113 -114 115 116 -117 120 -121 -124 125 129 -131 -133 136 -138 -140 142 -143 -144 146 -147 0
x 2 -4 5 -6 7 12 -14 20 -23 -28 29 30 31 -34 36 39 40 43 44 -46 49 50 51 52 -53 54 55 -56 -57 59 -61 62 -63 68 73 74 -75 77 -79 82 83 -84 89 -92 93 -98 -100 102 -104 105 -106 110 113 -115 117 -120 126 129 -130 -132 134 -135 -138 147 148 -150 0
x -1 -4 -5 9 -11 12 18 -19 20 -21 22 23 -28 29 30 31 32 34 -38 39 40 41 44 46 49 54 -55 57 60 -61 63 -64 69 -70 -72 -73 76 77 -81 -83 -84 87 89 90 91 93 -95 -96 98 -99 -100 101 103 106 -108 112 116 118 -120 121 122 -123 -126 -128 131 -132 -133 134 136 -137 -140 -143 144 -149 -150 0
x 2 3 8 -10 -15 -16 18 -19 -20 21 -23 -27 28 30 -34 37 41 -45 50 -52 54 56 57 -58 65 68 -69 70 71 73 74 -75 76 78 80 82 84 85 -86 90 -91 93 -96 -97 98 100 101 102 103 105 -106 -107 -109 -110 111 113 -115 -118 -119 120 -122 125 126 -130 131 132 136 138 -140 141 -143 -144 145 150 0
x -1 3 -5 7 9 10 -11 -21 -22 -24 -26 -28 -29 30 -31 36 39 -42 45 53 -54 -56 57 -59 61 -63 65 66 -67 68 -70 -72 -75 -78 -80 81 84 -89 -92 93 96 97 -99 101 102 -106 107 -114 -115 118 -125 -126 -127 130 -131 -134 -137 140 -142 144 145 148 0
x 6 7 9 -10 -11 -12 -14 -18 19 22 -23 -26 -27 28 29 30 -31 -33 -35 36 -38 40 -42 43 -46 -49 -50 -52 -53 55 -56 -57 -60 62 63 -65 67 69 -70 -71 72 -73 77 -79 83 84 87 -89 90 92 -93 -94 95 96 -97 98 99 105 106 107 -109 -110 -113 -114 -116 117 119 -121 -122 -123 125 126 127 128 -129 130 131 -135 -136 138 139 142 144 -147 -148 0
x 1 2 -3 -4 -5 6 -7 9 11 -12 -13 -17 -18 -19 22 -23 -24 -25 -28 -30 31 33 35 36 -38 -41 43 -44 46 47 -48 49 -50 56 58 59 -60 -61 63 65 66 69 -70 -72 -73 74 -75 77 78 -79 -84 85 -87 -89 91 -93 95 98 -100 101 102 103 104 -112 113 -114 -115 -117 -118 -120 121 124 125 -126 -127 128 -129 130 -131 133 -135 136 -137 139 -140 -141 143 146 148 150 0
x 1 2 -3 4 6 8 -10 -14 -17 -19 -21 -24 26 -28 30 -38 41 -43 -47 -49 -50 51 -52 53 54 56 59 61 -66 -70 -71 -72 -76 -78 -80 89 90 -93 -96 -99 -102 -104 107 108 -109 -110 -111 -113 114 117 -119 -120 -121 122 126 127 -128 130 132 133 -136 -137 138 -139 -140 142 143 -146 -148 -150 0
x -3 5 -9 12 16 -17 18 -27 -28 -34 -36 -39 -42 -43 -44 45 46 47 -49 -50 -51 52 54 -57 58 -59 -63 64 68 -69 -70 -73 -74 77 -79 80 -81 -82 83 -91 92 -93 -94 95 96 98 99 100 102 104 -106 111 -113 -114 117 -118 121 123 124 -126 -127 128 129 -132 -133 -135 -138 139 144 146 149 0
x -1 -3 6 8 12 -13 14 16 19 20 21 -23 28 -29 -31 -32 36 38 40 -42 -43 -44 45 47 -48 -54 55 -58 -59 -61 -66 67 -68 69 -70 73 -74 75 -77 -80 82 84 85 86 88 89 90 -92 -94 -95 -98 -99 -101 -102 103 104 108 109 113 -115 116 -119 -120 122 -123 -124 -125 127 -128 129 -130 -135 -136 137 138 -140 142 -143 148 149 -150 0
x -2 -3 -4 7 9 11 14 -15 18 -20 -22 25 -27 28 29 -30 31 33 -36 40 -41 42 -45 -46 -48 -51 -53 -54 -55 56 -58 -61 -63 -65 -71 -76 78 79 -83 -87 89 -91 -92 -95 -96 -99 100 -101 103 106 -108 110 112 -114 -115 117 -119 120 121 124 -125 126 129 131 132 -135 136 -139 141 -142 144 146 147 148 0
x 1 3 -4 6 -7 8 -10 -11 -12 13 -14 15 18 19 -22 23 29 -31 -36 38 -39 40 41 42 -43 -45 48 -50 -52 -53 56 58 59 60 -61 63 -64 -66 -67 69 -73 -75 79 80 -82 -86 -91 92 93 95 96 97 -98 101 -102 -103 106 107 -109 115 -116 117 119 123 -124 125 -127 -129 134 136 -137 -138 -140 141 142 -143 -144 -146 147 -149 0
x 7 -9 -10 12 16 18 -19 20 21 -22 23 -24 -25 -26 28 33 -35 38 39 -40 45 52 55 56 -64 65 -67 69 -71 72 73 77 -84 -85 -89 90 -92 -93 94 -96 -97 -102 -105 -106 -107 108 110 111 -112 -113 -114 115 -116 117 121 122 123 125 -126 -128 130 132 134 -135 -137 139 -141 -145 150 0
x 2 3 -5 -6 12 15 -16 -17 18 19 20 -23 25 26 -28 -29 30 -31 -32 -34 40 -46 -47 -48 -49 51 -53 -55 -57 -60 -64 -66 -68 -69 70 71 -72 73 76 -81 86 -88 -89 94 97 -99 101 -113 -114 -115 118 -122 -123 -131 132 -134 -135 -136 -137 138 139 140 -141 143 -144 145 0
x 3 4 6 7 9 10 -12 -13 14 -15 -17 19 20 -24 25 -26 -33 35 -40 41 42 43 44 45 47 48 49 50 51 -53 -54 -56 -57 -58 59 -60 -61 -62 65 -68 -70 71 -72 78 79 -80 -90 -92 94 -96 -98 99 -100 104 106 108 109 110 -113 -115 116 118 119 120 -121 -125 -127 129 131 -133 -134 135 138 141 -144 -145 146 147 149 150 0
x -1 3 -4 -6 8 -10 -15 20 23 25 28 -29 -30 31 -32 34 -37 -39 40 -41 -43 44 46 47 48 -49 50 51 53 -55 57 60 62 -64 -66 -67 -68 -69 73 -74 -75 -78 -79 82 83 84 85 -86 88 89 -92 94 -98 -100 102 103 108 -110 -111 112 117 118 119 120 -121 -122 126 130 131 132 137 -138 140 -142 143 -144 145 147 148 149 -150 0
x 2 4 -6 8 -11 13 14 -17 19 -20 23 24 -28 29 30 -32 33 36 41 42 44 -45 -46 -48 -50 51 53 -56 -58 -59 -60 -62 64 65 69 70 -71 73 -75 78 80 -86 -88 -89 91 93 -95 -97 -98 99 100 -101 103 104 -105 106 108 -109 -112 -114 -115 -119 -122 125 126 127 130 133 -134 -135 138 -139 -142 143 144 -148 0
x 1 -2 3 7 -15 16 -19 -20 21 -22 23 -25 26 28 29 30 34 -36 38 40 41 -44 46 -48 52 -53 -57 -58 -59 61 62 -63 66 -67 74 -75 -80 -82 -84 89 90 -91 92 93 -95 -96 -101 103 -105 107 109 -111 113 -116 117 118 -120 121 -122 -123 124 125 127 128 129 -130 -133 -136 -137 -138 139 -140 141 -142 147 148 149 150 0
x -1 2 -3 -5 -7 10 14 -15 16 -19 20 21 23 24 25 -27 31 33 34 -36 -38 -39 -42 43 46 47 50 51 55 -57 59 -60 -61 -62 -66 -68 69 73 -74 -75 -76 -80 -81 86 -87 -88 -89 -91 93 94 95 -96 97 -98 100 102 106 -107 108 109 111 113 114 116 117 -121 -123 -125 127 -131 134 139 -140 -141 143 -146 148 149 -150 0
x 1 -3 -4 7 14 15 16 20 -21 -23 -25 -28 29 31 33 -35 -36 -37 39 -40 -44 -46 -47 -48 -50 53 -54 -57 58 59 -60 61 -62 65 -67 -68 72 77 -79 -82 -87 -89 90 91 93 95 96 98 99 102 -103 106 -107 -108 -109 -112 113 -115 -117 119 121 122 -123 125 127 128 129 -130 -132 134 136 -139 -143 144 -145 146 -148 150 0
